2-dimensional/CL_01_25_08.vbp
2
1000 1000 
25
353 388 30
285 367 72
303 314 4
272 297 88
160 182 54
334 236 64
359 225 90
203 315 26
232 175 94
313 169 28
113 166 72
298 131 49
135 132 54
191 334 19
232 105 28
125 111 61
136 220 84
333 396 23
281 109 67
249 123 53
301 105 54
306 123 16
229 343 9
137 132 54
198 156 77
