datasets/2-dimensional/CL_01_25_08.txt
1000 1000 
0 30 353 388 
1 72 285 367 
2 4 303 314 
3 88 272 297 
4 54 160 182 
5 64 334 236 
6 90 359 225 
7 26 203 315 
8 94 232 175 
9 28 313 169 
10 72 113 166 
11 49 298 131 
12 54 135 132 
13 19 191 334 
14 28 232 105 
15 61 125 111 
16 84 136 220 
17 23 333 396 
18 67 281 109 
19 53 249 123 
20 54 301 105 
21 16 306 123 
22 9 229 343 
23 54 137 132 
24 77 198 156 
